c exact Farkas aggregate replay for case balanced
c 164 forced units with sum at most 162
p cnf 488 652
1 0
2 0
3 0
4 0
5 0
6 0
7 0
8 0
9 0
10 0
11 0
12 0
13 0
14 0
15 0
16 0
17 0
18 0
19 0
20 0
21 0
22 0
23 0
24 0
25 0
26 0
27 0
28 0
29 0
30 0
31 0
32 0
33 0
34 0
35 0
36 0
37 0
38 0
39 0
40 0
41 0
42 0
43 0
44 0
45 0
46 0
47 0
48 0
49 0
50 0
51 0
52 0
53 0
54 0
55 0
56 0
57 0
58 0
59 0
60 0
61 0
62 0
63 0
64 0
65 0
66 0
67 0
68 0
69 0
70 0
71 0
72 0
73 0
74 0
75 0
76 0
77 0
78 0
79 0
80 0
81 0
82 0
83 0
84 0
85 0
86 0
87 0
88 0
89 0
90 0
91 0
92 0
93 0
94 0
95 0
96 0
97 0
98 0
99 0
100 0
101 0
102 0
103 0
104 0
105 0
106 0
107 0
108 0
109 0
110 0
111 0
112 0
113 0
114 0
115 0
116 0
117 0
118 0
119 0
120 0
121 0
122 0
123 0
124 0
125 0
126 0
127 0
128 0
129 0
130 0
131 0
132 0
133 0
134 0
135 0
136 0
137 0
138 0
139 0
140 0
141 0
142 0
143 0
144 0
145 0
146 0
147 0
148 0
149 0
150 0
151 0
152 0
153 0
154 0
155 0
156 0
157 0
158 0
159 0
160 0
161 0
162 0
163 0
164 0
-1 165 0
-165 166 0
-2 -165 167 0
-167 168 0
-3 -167 169 0
-169 170 0
-4 -169 171 0
-171 172 0
-5 -171 173 0
-173 174 0
-6 -173 175 0
-175 176 0
-7 -175 177 0
-177 178 0
-8 -177 179 0
-179 180 0
-9 -179 181 0
-181 182 0
-10 -181 183 0
-183 184 0
-11 -183 185 0
-185 186 0
-12 -185 187 0
-187 188 0
-13 -187 189 0
-189 190 0
-14 -189 191 0
-191 192 0
-15 -191 193 0
-193 194 0
-16 -193 195 0
-195 196 0
-17 -195 197 0
-197 198 0
-18 -197 199 0
-199 200 0
-19 -199 201 0
-201 202 0
-20 -201 203 0
-203 204 0
-21 -203 205 0
-205 206 0
-22 -205 207 0
-207 208 0
-23 -207 209 0
-209 210 0
-24 -209 211 0
-211 212 0
-25 -211 213 0
-213 214 0
-26 -213 215 0
-215 216 0
-27 -215 217 0
-217 218 0
-28 -217 219 0
-219 220 0
-29 -219 221 0
-221 222 0
-30 -221 223 0
-223 224 0
-31 -223 225 0
-225 226 0
-32 -225 227 0
-227 228 0
-33 -227 229 0
-229 230 0
-34 -229 231 0
-231 232 0
-35 -231 233 0
-233 234 0
-36 -233 235 0
-235 236 0
-37 -235 237 0
-237 238 0
-38 -237 239 0
-239 240 0
-39 -239 241 0
-241 242 0
-40 -241 243 0
-243 244 0
-41 -243 245 0
-245 246 0
-42 -245 247 0
-247 248 0
-43 -247 249 0
-249 250 0
-44 -249 251 0
-251 252 0
-45 -251 253 0
-253 254 0
-46 -253 255 0
-255 256 0
-47 -255 257 0
-257 258 0
-48 -257 259 0
-259 260 0
-49 -259 261 0
-261 262 0
-50 -261 263 0
-263 264 0
-51 -263 265 0
-265 266 0
-52 -265 267 0
-267 268 0
-53 -267 269 0
-269 270 0
-54 -269 271 0
-271 272 0
-55 -271 273 0
-273 274 0
-56 -273 275 0
-275 276 0
-57 -275 277 0
-277 278 0
-58 -277 279 0
-279 280 0
-59 -279 281 0
-281 282 0
-60 -281 283 0
-283 284 0
-61 -283 285 0
-285 286 0
-62 -285 287 0
-287 288 0
-63 -287 289 0
-289 290 0
-64 -289 291 0
-291 292 0
-65 -291 293 0
-293 294 0
-66 -293 295 0
-295 296 0
-67 -295 297 0
-297 298 0
-68 -297 299 0
-299 300 0
-69 -299 301 0
-301 302 0
-70 -301 303 0
-303 304 0
-71 -303 305 0
-305 306 0
-72 -305 307 0
-307 308 0
-73 -307 309 0
-309 310 0
-74 -309 311 0
-311 312 0
-75 -311 313 0
-313 314 0
-76 -313 315 0
-315 316 0
-77 -315 317 0
-317 318 0
-78 -317 319 0
-319 320 0
-79 -319 321 0
-321 322 0
-80 -321 323 0
-323 324 0
-81 -323 325 0
-325 326 0
-82 -325 327 0
-327 328 0
-83 -327 329 0
-329 330 0
-84 -329 331 0
-331 332 0
-85 -331 333 0
-333 334 0
-86 -333 335 0
-335 336 0
-87 -335 337 0
-337 338 0
-88 -337 339 0
-339 340 0
-89 -339 341 0
-341 342 0
-90 -341 343 0
-343 344 0
-91 -343 345 0
-345 346 0
-92 -345 347 0
-347 348 0
-93 -347 349 0
-349 350 0
-94 -349 351 0
-351 352 0
-95 -351 353 0
-353 354 0
-96 -353 355 0
-355 356 0
-97 -355 357 0
-357 358 0
-98 -357 359 0
-359 360 0
-99 -359 361 0
-361 362 0
-100 -361 363 0
-363 364 0
-101 -363 365 0
-365 366 0
-102 -365 367 0
-367 368 0
-103 -367 369 0
-369 370 0
-104 -369 371 0
-371 372 0
-105 -371 373 0
-373 374 0
-106 -373 375 0
-375 376 0
-107 -375 377 0
-377 378 0
-108 -377 379 0
-379 380 0
-109 -379 381 0
-381 382 0
-110 -381 383 0
-383 384 0
-111 -383 385 0
-385 386 0
-112 -385 387 0
-387 388 0
-113 -387 389 0
-389 390 0
-114 -389 391 0
-391 392 0
-115 -391 393 0
-393 394 0
-116 -393 395 0
-395 396 0
-117 -395 397 0
-397 398 0
-118 -397 399 0
-399 400 0
-119 -399 401 0
-401 402 0
-120 -401 403 0
-403 404 0
-121 -403 405 0
-405 406 0
-122 -405 407 0
-407 408 0
-123 -407 409 0
-409 410 0
-124 -409 411 0
-411 412 0
-125 -411 413 0
-413 414 0
-126 -413 415 0
-415 416 0
-127 -415 417 0
-417 418 0
-128 -417 419 0
-419 420 0
-129 -419 421 0
-421 422 0
-130 -421 423 0
-423 424 0
-131 -423 425 0
-425 426 0
-132 -425 427 0
-427 428 0
-133 -427 429 0
-429 430 0
-134 -429 431 0
-431 432 0
-135 -431 433 0
-433 434 0
-136 -433 435 0
-435 436 0
-137 -435 437 0
-437 438 0
-138 -437 439 0
-439 440 0
-139 -439 441 0
-441 442 0
-140 -441 443 0
-443 444 0
-141 -443 445 0
-445 446 0
-142 -445 447 0
-447 448 0
-143 -447 449 0
-449 450 0
-144 -449 451 0
-451 452 0
-145 -451 453 0
-453 454 0
-146 -453 455 0
-455 456 0
-147 -455 457 0
-457 458 0
-148 -457 459 0
-459 460 0
-149 -459 461 0
-461 462 0
-150 -461 463 0
-463 464 0
-151 -463 465 0
-465 466 0
-152 -465 467 0
-467 468 0
-153 -467 469 0
-469 470 0
-154 -469 471 0
-471 472 0
-155 -471 473 0
-473 474 0
-156 -473 475 0
-475 476 0
-157 -475 477 0
-477 478 0
-158 -477 479 0
-479 480 0
-159 -479 481 0
-481 482 0
-160 -481 483 0
-483 484 0
-161 -483 485 0
-485 486 0
-162 -485 487 0
-487 488 0
-163 -487 0
-2 166 0
-3 -166 168 0
-4 -168 170 0
-5 -170 172 0
-6 -172 174 0
-7 -174 176 0
-8 -176 178 0
-9 -178 180 0
-10 -180 182 0
-11 -182 184 0
-12 -184 186 0
-13 -186 188 0
-14 -188 190 0
-15 -190 192 0
-16 -192 194 0
-17 -194 196 0
-18 -196 198 0
-19 -198 200 0
-20 -200 202 0
-21 -202 204 0
-22 -204 206 0
-23 -206 208 0
-24 -208 210 0
-25 -210 212 0
-26 -212 214 0
-27 -214 216 0
-28 -216 218 0
-29 -218 220 0
-30 -220 222 0
-31 -222 224 0
-32 -224 226 0
-33 -226 228 0
-34 -228 230 0
-35 -230 232 0
-36 -232 234 0
-37 -234 236 0
-38 -236 238 0
-39 -238 240 0
-40 -240 242 0
-41 -242 244 0
-42 -244 246 0
-43 -246 248 0
-44 -248 250 0
-45 -250 252 0
-46 -252 254 0
-47 -254 256 0
-48 -256 258 0
-49 -258 260 0
-50 -260 262 0
-51 -262 264 0
-52 -264 266 0
-53 -266 268 0
-54 -268 270 0
-55 -270 272 0
-56 -272 274 0
-57 -274 276 0
-58 -276 278 0
-59 -278 280 0
-60 -280 282 0
-61 -282 284 0
-62 -284 286 0
-63 -286 288 0
-64 -288 290 0
-65 -290 292 0
-66 -292 294 0
-67 -294 296 0
-68 -296 298 0
-69 -298 300 0
-70 -300 302 0
-71 -302 304 0
-72 -304 306 0
-73 -306 308 0
-74 -308 310 0
-75 -310 312 0
-76 -312 314 0
-77 -314 316 0
-78 -316 318 0
-79 -318 320 0
-80 -320 322 0
-81 -322 324 0
-82 -324 326 0
-83 -326 328 0
-84 -328 330 0
-85 -330 332 0
-86 -332 334 0
-87 -334 336 0
-88 -336 338 0
-89 -338 340 0
-90 -340 342 0
-91 -342 344 0
-92 -344 346 0
-93 -346 348 0
-94 -348 350 0
-95 -350 352 0
-96 -352 354 0
-97 -354 356 0
-98 -356 358 0
-99 -358 360 0
-100 -360 362 0
-101 -362 364 0
-102 -364 366 0
-103 -366 368 0
-104 -368 370 0
-105 -370 372 0
-106 -372 374 0
-107 -374 376 0
-108 -376 378 0
-109 -378 380 0
-110 -380 382 0
-111 -382 384 0
-112 -384 386 0
-113 -386 388 0
-114 -388 390 0
-115 -390 392 0
-116 -392 394 0
-117 -394 396 0
-118 -396 398 0
-119 -398 400 0
-120 -400 402 0
-121 -402 404 0
-122 -404 406 0
-123 -406 408 0
-124 -408 410 0
-125 -410 412 0
-126 -412 414 0
-127 -414 416 0
-128 -416 418 0
-129 -418 420 0
-130 -420 422 0
-131 -422 424 0
-132 -424 426 0
-133 -426 428 0
-134 -428 430 0
-135 -430 432 0
-136 -432 434 0
-137 -434 436 0
-138 -436 438 0
-139 -438 440 0
-140 -440 442 0
-141 -442 444 0
-142 -444 446 0
-143 -446 448 0
-144 -448 450 0
-145 -450 452 0
-146 -452 454 0
-147 -454 456 0
-148 -456 458 0
-149 -458 460 0
-150 -460 462 0
-151 -462 464 0
-152 -464 466 0
-153 -466 468 0
-154 -468 470 0
-155 -470 472 0
-156 -472 474 0
-157 -474 476 0
-158 -476 478 0
-159 -478 480 0
-160 -480 482 0
-161 -482 484 0
-162 -484 486 0
-163 -486 488 0
-164 -488 0
